Minimize
A_1_0 + A_1_1 + A_1_2 + A_1_3 + A_2_0 + A_2_1 + A_2_2 + A_2_3 + A_3_0 + A_3_1 + A_3_2 + A_3_3 + A_4_0 + A_4_1 + A_4_2 + A_4_3 + A_5_0 + A_5_1 + A_5_2 + A_5_3 + A_6_0 + A_6_1 + A_6_2 + A_6_3 + A_7_0 + A_7_1 + A_7_2 + A_7_3 + A_8_0 + A_8_1 + A_8_2 + A_8_3 + A_9_0 + A_9_1 + A_9_2 + A_9_3 + A_10_0 + A_10_1 + A_10_2 + A_10_3 + A_11_0 + A_11_1 + A_11_2 + A_11_3 + A_12_0 + A_12_1 + A_12_2 + A_12_3 + A_13_0 + A_13_1 + A_13_2 + A_13_3 + A_14_0 + A_14_1 + A_14_2 + A_14_3 + A_15_0 + A_15_1 + A_15_2 + A_15_3 + A_16_0 + A_16_1 + A_16_2 + A_16_3 + A_17_0 + A_17_1 + A_17_2 + A_17_3 + A_18_0 + A_18_1 + A_18_2 + A_18_3 + A_19_0 + A_19_1 + A_19_2 + A_19_3 + A_20_0 + A_20_1 + A_20_2 + A_20_3 + A_21_0 + A_21_1 + A_21_2 + A_21_3 + A_22_0 + A_22_1 + A_22_2 + A_22_3 + A_23_0 + A_23_1 + A_23_2 + A_23_3 + A_24_0 + A_24_1 + A_24_2 + A_24_3 + A_25_0 + A_25_1 + A_25_2 + A_25_3 + A_26_0 + A_26_1 + A_26_2 + A_26_3 + A_27_0 + A_27_1 + A_27_2 + A_27_3 + A_28_0 + A_28_1 + A_28_2 + A_28_3 + A_29_0 + A_29_1 + A_29_2 + A_29_3 + A_30_0 + A_30_1 + A_30_2 + A_30_3 + A_31_0 + A_31_1 + A_31_2 + A_31_3 + A_32_0 + A_32_1 + A_32_2 + A_32_3 + A_33_0 + A_33_1 + A_33_2 + A_33_3 + A_34_0 + A_34_1 + A_34_2 + A_34_3 + A_35_0 + A_35_1 + A_35_2 + A_35_3 + A_36_0 + A_36_1 + A_36_2 + A_36_3 + A_37_0 + A_37_1 + A_37_2 + A_37_3 + A_38_0 + A_38_1 + A_38_2 + A_38_3 + A_39_0 + A_39_1 + A_39_2 + A_39_3 + A_40_0 + A_40_1 + A_40_2 + A_40_3 + A_41_0 + A_41_1 + A_41_2 + A_41_3 + A_42_0 + A_42_1 + A_42_2 + A_42_3 + A_43_0 + A_43_1 + A_43_2 + A_43_3 + A_44_0 + A_44_1 + A_44_2 + A_44_3 + A_45_0 + A_45_1 + A_45_2 + A_45_3 + A_46_0 + A_46_1 + A_46_2 + A_46_3 + A_47_0 + A_47_1 + A_47_2 + A_47_3 + A_48_0 + A_48_1 + A_48_2 + A_48_3 + A_49_0 + A_49_1 + A_49_2 + A_49_3 + A_50_0 + A_50_1 + A_50_2 + A_50_3
Subject To
x_1_4 - x_2_0 = 0
x_1_5 - x_2_1 = 0
x_1_2 - x_2_6 = 0
x_1_3 - x_2_7 = 0
x_1_0 + x_2_1 + x_2_2 - 2 d_1_0 >= 0
d_1_0 - x_1_0 >= 0
d_1_0 - x_2_1 >= 0
d_1_0 - x_2_2 >= 0
x_1_1 + x_2_0 + x_2_3 - 2 d_1_1 >= 0
d_1_1 - x_1_1 >= 0
d_1_1 - x_2_0 >= 0
d_1_1 - x_2_3 >= 0
x_1_6 + x_2_4 + x_2_7 - 2 d_1_2 >= 0
d_1_2 - x_1_6 >= 0
d_1_2 - x_2_4 >= 0
d_1_2 - x_2_7 >= 0
x_1_7 + x_2_5 + x_2_6 - 2 d_1_3 >= 0
d_1_3 - x_1_7 >= 0
d_1_3 - x_2_5 >= 0
d_1_3 - x_2_6 >= 0
A_1_0 - x_2_0 >= 0
A_1_1 - x_2_1 >= 0
A_1_2 - x_2_6 >= 0
A_1_3 - x_2_7 >= 0
x_2_4 - x_3_0 = 0
x_2_5 - x_3_1 = 0
x_2_2 - x_3_6 = 0
x_2_3 - x_3_7 = 0
x_2_0 + x_3_1 + x_3_2 - 2 d_2_0 >= 0
d_2_0 - x_2_0 >= 0
d_2_0 - x_3_1 >= 0
d_2_0 - x_3_2 >= 0
x_2_1 + x_3_0 + x_3_3 - 2 d_2_1 >= 0
d_2_1 - x_2_1 >= 0
d_2_1 - x_3_0 >= 0
d_2_1 - x_3_3 >= 0
x_2_6 + x_3_4 + x_3_7 - 2 d_2_2 >= 0
d_2_2 - x_2_6 >= 0
d_2_2 - x_3_4 >= 0
d_2_2 - x_3_7 >= 0
x_2_7 + x_3_5 + x_3_6 - 2 d_2_3 >= 0
d_2_3 - x_2_7 >= 0
d_2_3 - x_3_5 >= 0
d_2_3 - x_3_6 >= 0
A_2_0 - x_3_0 >= 0
A_2_1 - x_3_1 >= 0
A_2_2 - x_3_6 >= 0
A_2_3 - x_3_7 >= 0
x_3_4 - x_4_0 = 0
x_3_5 - x_4_1 = 0
x_3_2 - x_4_6 = 0
x_3_3 - x_4_7 = 0
x_3_0 + x_4_1 + x_4_2 - 2 d_3_0 >= 0
d_3_0 - x_3_0 >= 0
d_3_0 - x_4_1 >= 0
d_3_0 - x_4_2 >= 0
x_3_1 + x_4_0 + x_4_3 - 2 d_3_1 >= 0
d_3_1 - x_3_1 >= 0
d_3_1 - x_4_0 >= 0
d_3_1 - x_4_3 >= 0
x_3_6 + x_4_4 + x_4_7 - 2 d_3_2 >= 0
d_3_2 - x_3_6 >= 0
d_3_2 - x_4_4 >= 0
d_3_2 - x_4_7 >= 0
x_3_7 + x_4_5 + x_4_6 - 2 d_3_3 >= 0
d_3_3 - x_3_7 >= 0
d_3_3 - x_4_5 >= 0
d_3_3 - x_4_6 >= 0
A_3_0 - x_4_0 >= 0
A_3_1 - x_4_1 >= 0
A_3_2 - x_4_6 >= 0
A_3_3 - x_4_7 >= 0
x_4_4 - x_5_0 = 0
x_4_5 - x_5_1 = 0
x_4_2 - x_5_6 = 0
x_4_3 - x_5_7 = 0
x_4_0 + x_5_1 + x_5_2 - 2 d_4_0 >= 0
d_4_0 - x_4_0 >= 0
d_4_0 - x_5_1 >= 0
d_4_0 - x_5_2 >= 0
x_4_1 + x_5_0 + x_5_3 - 2 d_4_1 >= 0
d_4_1 - x_4_1 >= 0
d_4_1 - x_5_0 >= 0
d_4_1 - x_5_3 >= 0
x_4_6 + x_5_4 + x_5_7 - 2 d_4_2 >= 0
d_4_2 - x_4_6 >= 0
d_4_2 - x_5_4 >= 0
d_4_2 - x_5_7 >= 0
x_4_7 + x_5_5 + x_5_6 - 2 d_4_3 >= 0
d_4_3 - x_4_7 >= 0
d_4_3 - x_5_5 >= 0
d_4_3 - x_5_6 >= 0
A_4_0 - x_5_0 >= 0
A_4_1 - x_5_1 >= 0
A_4_2 - x_5_6 >= 0
A_4_3 - x_5_7 >= 0
x_5_4 - x_6_0 = 0
x_5_5 - x_6_1 = 0
x_5_2 - x_6_6 = 0
x_5_3 - x_6_7 = 0
x_5_0 + x_6_1 + x_6_2 - 2 d_5_0 >= 0
d_5_0 - x_5_0 >= 0
d_5_0 - x_6_1 >= 0
d_5_0 - x_6_2 >= 0
x_5_1 + x_6_0 + x_6_3 - 2 d_5_1 >= 0
d_5_1 - x_5_1 >= 0
d_5_1 - x_6_0 >= 0
d_5_1 - x_6_3 >= 0
x_5_6 + x_6_4 + x_6_7 - 2 d_5_2 >= 0
d_5_2 - x_5_6 >= 0
d_5_2 - x_6_4 >= 0
d_5_2 - x_6_7 >= 0
x_5_7 + x_6_5 + x_6_6 - 2 d_5_3 >= 0
d_5_3 - x_5_7 >= 0
d_5_3 - x_6_5 >= 0
d_5_3 - x_6_6 >= 0
A_5_0 - x_6_0 >= 0
A_5_1 - x_6_1 >= 0
A_5_2 - x_6_6 >= 0
A_5_3 - x_6_7 >= 0
x_6_4 - x_7_0 = 0
x_6_5 - x_7_1 = 0
x_6_2 - x_7_6 = 0
x_6_3 - x_7_7 = 0
x_6_0 + x_7_1 + x_7_2 - 2 d_6_0 >= 0
d_6_0 - x_6_0 >= 0
d_6_0 - x_7_1 >= 0
d_6_0 - x_7_2 >= 0
x_6_1 + x_7_0 + x_7_3 - 2 d_6_1 >= 0
d_6_1 - x_6_1 >= 0
d_6_1 - x_7_0 >= 0
d_6_1 - x_7_3 >= 0
x_6_6 + x_7_4 + x_7_7 - 2 d_6_2 >= 0
d_6_2 - x_6_6 >= 0
d_6_2 - x_7_4 >= 0
d_6_2 - x_7_7 >= 0
x_6_7 + x_7_5 + x_7_6 - 2 d_6_3 >= 0
d_6_3 - x_6_7 >= 0
d_6_3 - x_7_5 >= 0
d_6_3 - x_7_6 >= 0
A_6_0 - x_7_0 >= 0
A_6_1 - x_7_1 >= 0
A_6_2 - x_7_6 >= 0
A_6_3 - x_7_7 >= 0
x_7_4 - x_8_0 = 0
x_7_5 - x_8_1 = 0
x_7_2 - x_8_6 = 0
x_7_3 - x_8_7 = 0
x_7_0 + x_8_1 + x_8_2 - 2 d_7_0 >= 0
d_7_0 - x_7_0 >= 0
d_7_0 - x_8_1 >= 0
d_7_0 - x_8_2 >= 0
x_7_1 + x_8_0 + x_8_3 - 2 d_7_1 >= 0
d_7_1 - x_7_1 >= 0
d_7_1 - x_8_0 >= 0
d_7_1 - x_8_3 >= 0
x_7_6 + x_8_4 + x_8_7 - 2 d_7_2 >= 0
d_7_2 - x_7_6 >= 0
d_7_2 - x_8_4 >= 0
d_7_2 - x_8_7 >= 0
x_7_7 + x_8_5 + x_8_6 - 2 d_7_3 >= 0
d_7_3 - x_7_7 >= 0
d_7_3 - x_8_5 >= 0
d_7_3 - x_8_6 >= 0
A_7_0 - x_8_0 >= 0
A_7_1 - x_8_1 >= 0
A_7_2 - x_8_6 >= 0
A_7_3 - x_8_7 >= 0
x_8_4 - x_9_0 = 0
x_8_5 - x_9_1 = 0
x_8_2 - x_9_6 = 0
x_8_3 - x_9_7 = 0
x_8_0 + x_9_1 + x_9_2 - 2 d_8_0 >= 0
d_8_0 - x_8_0 >= 0
d_8_0 - x_9_1 >= 0
d_8_0 - x_9_2 >= 0
x_8_1 + x_9_0 + x_9_3 - 2 d_8_1 >= 0
d_8_1 - x_8_1 >= 0
d_8_1 - x_9_0 >= 0
d_8_1 - x_9_3 >= 0
x_8_6 + x_9_4 + x_9_7 - 2 d_8_2 >= 0
d_8_2 - x_8_6 >= 0
d_8_2 - x_9_4 >= 0
d_8_2 - x_9_7 >= 0
x_8_7 + x_9_5 + x_9_6 - 2 d_8_3 >= 0
d_8_3 - x_8_7 >= 0
d_8_3 - x_9_5 >= 0
d_8_3 - x_9_6 >= 0
A_8_0 - x_9_0 >= 0
A_8_1 - x_9_1 >= 0
A_8_2 - x_9_6 >= 0
A_8_3 - x_9_7 >= 0
x_9_4 - x_10_0 = 0
x_9_5 - x_10_1 = 0
x_9_2 - x_10_6 = 0
x_9_3 - x_10_7 = 0
x_9_0 + x_10_1 + x_10_2 - 2 d_9_0 >= 0
d_9_0 - x_9_0 >= 0
d_9_0 - x_10_1 >= 0
d_9_0 - x_10_2 >= 0
x_9_1 + x_10_0 + x_10_3 - 2 d_9_1 >= 0
d_9_1 - x_9_1 >= 0
d_9_1 - x_10_0 >= 0
d_9_1 - x_10_3 >= 0
x_9_6 + x_10_4 + x_10_7 - 2 d_9_2 >= 0
d_9_2 - x_9_6 >= 0
d_9_2 - x_10_4 >= 0
d_9_2 - x_10_7 >= 0
x_9_7 + x_10_5 + x_10_6 - 2 d_9_3 >= 0
d_9_3 - x_9_7 >= 0
d_9_3 - x_10_5 >= 0
d_9_3 - x_10_6 >= 0
A_9_0 - x_10_0 >= 0
A_9_1 - x_10_1 >= 0
A_9_2 - x_10_6 >= 0
A_9_3 - x_10_7 >= 0
x_10_4 - x_11_0 = 0
x_10_5 - x_11_1 = 0
x_10_2 - x_11_6 = 0
x_10_3 - x_11_7 = 0
x_10_0 + x_11_1 + x_11_2 - 2 d_10_0 >= 0
d_10_0 - x_10_0 >= 0
d_10_0 - x_11_1 >= 0
d_10_0 - x_11_2 >= 0
x_10_1 + x_11_0 + x_11_3 - 2 d_10_1 >= 0
d_10_1 - x_10_1 >= 0
d_10_1 - x_11_0 >= 0
d_10_1 - x_11_3 >= 0
x_10_6 + x_11_4 + x_11_7 - 2 d_10_2 >= 0
d_10_2 - x_10_6 >= 0
d_10_2 - x_11_4 >= 0
d_10_2 - x_11_7 >= 0
x_10_7 + x_11_5 + x_11_6 - 2 d_10_3 >= 0
d_10_3 - x_10_7 >= 0
d_10_3 - x_11_5 >= 0
d_10_3 - x_11_6 >= 0
A_10_0 - x_11_0 >= 0
A_10_1 - x_11_1 >= 0
A_10_2 - x_11_6 >= 0
A_10_3 - x_11_7 >= 0
x_11_4 - x_12_0 = 0
x_11_5 - x_12_1 = 0
x_11_2 - x_12_6 = 0
x_11_3 - x_12_7 = 0
x_11_0 + x_12_1 + x_12_2 - 2 d_11_0 >= 0
d_11_0 - x_11_0 >= 0
d_11_0 - x_12_1 >= 0
d_11_0 - x_12_2 >= 0
x_11_1 + x_12_0 + x_12_3 - 2 d_11_1 >= 0
d_11_1 - x_11_1 >= 0
d_11_1 - x_12_0 >= 0
d_11_1 - x_12_3 >= 0
x_11_6 + x_12_4 + x_12_7 - 2 d_11_2 >= 0
d_11_2 - x_11_6 >= 0
d_11_2 - x_12_4 >= 0
d_11_2 - x_12_7 >= 0
x_11_7 + x_12_5 + x_12_6 - 2 d_11_3 >= 0
d_11_3 - x_11_7 >= 0
d_11_3 - x_12_5 >= 0
d_11_3 - x_12_6 >= 0
A_11_0 - x_12_0 >= 0
A_11_1 - x_12_1 >= 0
A_11_2 - x_12_6 >= 0
A_11_3 - x_12_7 >= 0
x_12_4 - x_13_0 = 0
x_12_5 - x_13_1 = 0
x_12_2 - x_13_6 = 0
x_12_3 - x_13_7 = 0
x_12_0 + x_13_1 + x_13_2 - 2 d_12_0 >= 0
d_12_0 - x_12_0 >= 0
d_12_0 - x_13_1 >= 0
d_12_0 - x_13_2 >= 0
x_12_1 + x_13_0 + x_13_3 - 2 d_12_1 >= 0
d_12_1 - x_12_1 >= 0
d_12_1 - x_13_0 >= 0
d_12_1 - x_13_3 >= 0
x_12_6 + x_13_4 + x_13_7 - 2 d_12_2 >= 0
d_12_2 - x_12_6 >= 0
d_12_2 - x_13_4 >= 0
d_12_2 - x_13_7 >= 0
x_12_7 + x_13_5 + x_13_6 - 2 d_12_3 >= 0
d_12_3 - x_12_7 >= 0
d_12_3 - x_13_5 >= 0
d_12_3 - x_13_6 >= 0
A_12_0 - x_13_0 >= 0
A_12_1 - x_13_1 >= 0
A_12_2 - x_13_6 >= 0
A_12_3 - x_13_7 >= 0
x_13_4 - x_14_0 = 0
x_13_5 - x_14_1 = 0
x_13_2 - x_14_6 = 0
x_13_3 - x_14_7 = 0
x_13_0 + x_14_1 + x_14_2 - 2 d_13_0 >= 0
d_13_0 - x_13_0 >= 0
d_13_0 - x_14_1 >= 0
d_13_0 - x_14_2 >= 0
x_13_1 + x_14_0 + x_14_3 - 2 d_13_1 >= 0
d_13_1 - x_13_1 >= 0
d_13_1 - x_14_0 >= 0
d_13_1 - x_14_3 >= 0
x_13_6 + x_14_4 + x_14_7 - 2 d_13_2 >= 0
d_13_2 - x_13_6 >= 0
d_13_2 - x_14_4 >= 0
d_13_2 - x_14_7 >= 0
x_13_7 + x_14_5 + x_14_6 - 2 d_13_3 >= 0
d_13_3 - x_13_7 >= 0
d_13_3 - x_14_5 >= 0
d_13_3 - x_14_6 >= 0
A_13_0 - x_14_0 >= 0
A_13_1 - x_14_1 >= 0
A_13_2 - x_14_6 >= 0
A_13_3 - x_14_7 >= 0
x_14_4 - x_15_0 = 0
x_14_5 - x_15_1 = 0
x_14_2 - x_15_6 = 0
x_14_3 - x_15_7 = 0
x_14_0 + x_15_1 + x_15_2 - 2 d_14_0 >= 0
d_14_0 - x_14_0 >= 0
d_14_0 - x_15_1 >= 0
d_14_0 - x_15_2 >= 0
x_14_1 + x_15_0 + x_15_3 - 2 d_14_1 >= 0
d_14_1 - x_14_1 >= 0
d_14_1 - x_15_0 >= 0
d_14_1 - x_15_3 >= 0
x_14_6 + x_15_4 + x_15_7 - 2 d_14_2 >= 0
d_14_2 - x_14_6 >= 0
d_14_2 - x_15_4 >= 0
d_14_2 - x_15_7 >= 0
x_14_7 + x_15_5 + x_15_6 - 2 d_14_3 >= 0
d_14_3 - x_14_7 >= 0
d_14_3 - x_15_5 >= 0
d_14_3 - x_15_6 >= 0
A_14_0 - x_15_0 >= 0
A_14_1 - x_15_1 >= 0
A_14_2 - x_15_6 >= 0
A_14_3 - x_15_7 >= 0
x_15_4 - x_16_0 = 0
x_15_5 - x_16_1 = 0
x_15_2 - x_16_6 = 0
x_15_3 - x_16_7 = 0
x_15_0 + x_16_1 + x_16_2 - 2 d_15_0 >= 0
d_15_0 - x_15_0 >= 0
d_15_0 - x_16_1 >= 0
d_15_0 - x_16_2 >= 0
x_15_1 + x_16_0 + x_16_3 - 2 d_15_1 >= 0
d_15_1 - x_15_1 >= 0
d_15_1 - x_16_0 >= 0
d_15_1 - x_16_3 >= 0
x_15_6 + x_16_4 + x_16_7 - 2 d_15_2 >= 0
d_15_2 - x_15_6 >= 0
d_15_2 - x_16_4 >= 0
d_15_2 - x_16_7 >= 0
x_15_7 + x_16_5 + x_16_6 - 2 d_15_3 >= 0
d_15_3 - x_15_7 >= 0
d_15_3 - x_16_5 >= 0
d_15_3 - x_16_6 >= 0
A_15_0 - x_16_0 >= 0
A_15_1 - x_16_1 >= 0
A_15_2 - x_16_6 >= 0
A_15_3 - x_16_7 >= 0
x_16_4 - x_17_0 = 0
x_16_5 - x_17_1 = 0
x_16_2 - x_17_6 = 0
x_16_3 - x_17_7 = 0
x_16_0 + x_17_1 + x_17_2 - 2 d_16_0 >= 0
d_16_0 - x_16_0 >= 0
d_16_0 - x_17_1 >= 0
d_16_0 - x_17_2 >= 0
x_16_1 + x_17_0 + x_17_3 - 2 d_16_1 >= 0
d_16_1 - x_16_1 >= 0
d_16_1 - x_17_0 >= 0
d_16_1 - x_17_3 >= 0
x_16_6 + x_17_4 + x_17_7 - 2 d_16_2 >= 0
d_16_2 - x_16_6 >= 0
d_16_2 - x_17_4 >= 0
d_16_2 - x_17_7 >= 0
x_16_7 + x_17_5 + x_17_6 - 2 d_16_3 >= 0
d_16_3 - x_16_7 >= 0
d_16_3 - x_17_5 >= 0
d_16_3 - x_17_6 >= 0
A_16_0 - x_17_0 >= 0
A_16_1 - x_17_1 >= 0
A_16_2 - x_17_6 >= 0
A_16_3 - x_17_7 >= 0
x_17_4 - x_18_0 = 0
x_17_5 - x_18_1 = 0
x_17_2 - x_18_6 = 0
x_17_3 - x_18_7 = 0
x_17_0 + x_18_1 + x_18_2 - 2 d_17_0 >= 0
d_17_0 - x_17_0 >= 0
d_17_0 - x_18_1 >= 0
d_17_0 - x_18_2 >= 0
x_17_1 + x_18_0 + x_18_3 - 2 d_17_1 >= 0
d_17_1 - x_17_1 >= 0
d_17_1 - x_18_0 >= 0
d_17_1 - x_18_3 >= 0
x_17_6 + x_18_4 + x_18_7 - 2 d_17_2 >= 0
d_17_2 - x_17_6 >= 0
d_17_2 - x_18_4 >= 0
d_17_2 - x_18_7 >= 0
x_17_7 + x_18_5 + x_18_6 - 2 d_17_3 >= 0
d_17_3 - x_17_7 >= 0
d_17_3 - x_18_5 >= 0
d_17_3 - x_18_6 >= 0
A_17_0 - x_18_0 >= 0
A_17_1 - x_18_1 >= 0
A_17_2 - x_18_6 >= 0
A_17_3 - x_18_7 >= 0
x_18_4 - x_19_0 = 0
x_18_5 - x_19_1 = 0
x_18_2 - x_19_6 = 0
x_18_3 - x_19_7 = 0
x_18_0 + x_19_1 + x_19_2 - 2 d_18_0 >= 0
d_18_0 - x_18_0 >= 0
d_18_0 - x_19_1 >= 0
d_18_0 - x_19_2 >= 0
x_18_1 + x_19_0 + x_19_3 - 2 d_18_1 >= 0
d_18_1 - x_18_1 >= 0
d_18_1 - x_19_0 >= 0
d_18_1 - x_19_3 >= 0
x_18_6 + x_19_4 + x_19_7 - 2 d_18_2 >= 0
d_18_2 - x_18_6 >= 0
d_18_2 - x_19_4 >= 0
d_18_2 - x_19_7 >= 0
x_18_7 + x_19_5 + x_19_6 - 2 d_18_3 >= 0
d_18_3 - x_18_7 >= 0
d_18_3 - x_19_5 >= 0
d_18_3 - x_19_6 >= 0
A_18_0 - x_19_0 >= 0
A_18_1 - x_19_1 >= 0
A_18_2 - x_19_6 >= 0
A_18_3 - x_19_7 >= 0
x_19_4 - x_20_0 = 0
x_19_5 - x_20_1 = 0
x_19_2 - x_20_6 = 0
x_19_3 - x_20_7 = 0
x_19_0 + x_20_1 + x_20_2 - 2 d_19_0 >= 0
d_19_0 - x_19_0 >= 0
d_19_0 - x_20_1 >= 0
d_19_0 - x_20_2 >= 0
x_19_1 + x_20_0 + x_20_3 - 2 d_19_1 >= 0
d_19_1 - x_19_1 >= 0
d_19_1 - x_20_0 >= 0
d_19_1 - x_20_3 >= 0
x_19_6 + x_20_4 + x_20_7 - 2 d_19_2 >= 0
d_19_2 - x_19_6 >= 0
d_19_2 - x_20_4 >= 0
d_19_2 - x_20_7 >= 0
x_19_7 + x_20_5 + x_20_6 - 2 d_19_3 >= 0
d_19_3 - x_19_7 >= 0
d_19_3 - x_20_5 >= 0
d_19_3 - x_20_6 >= 0
A_19_0 - x_20_0 >= 0
A_19_1 - x_20_1 >= 0
A_19_2 - x_20_6 >= 0
A_19_3 - x_20_7 >= 0
x_20_4 - x_21_0 = 0
x_20_5 - x_21_1 = 0
x_20_2 - x_21_6 = 0
x_20_3 - x_21_7 = 0
x_20_0 + x_21_1 + x_21_2 - 2 d_20_0 >= 0
d_20_0 - x_20_0 >= 0
d_20_0 - x_21_1 >= 0
d_20_0 - x_21_2 >= 0
x_20_1 + x_21_0 + x_21_3 - 2 d_20_1 >= 0
d_20_1 - x_20_1 >= 0
d_20_1 - x_21_0 >= 0
d_20_1 - x_21_3 >= 0
x_20_6 + x_21_4 + x_21_7 - 2 d_20_2 >= 0
d_20_2 - x_20_6 >= 0
d_20_2 - x_21_4 >= 0
d_20_2 - x_21_7 >= 0
x_20_7 + x_21_5 + x_21_6 - 2 d_20_3 >= 0
d_20_3 - x_20_7 >= 0
d_20_3 - x_21_5 >= 0
d_20_3 - x_21_6 >= 0
A_20_0 - x_21_0 >= 0
A_20_1 - x_21_1 >= 0
A_20_2 - x_21_6 >= 0
A_20_3 - x_21_7 >= 0
x_21_4 - x_22_0 = 0
x_21_5 - x_22_1 = 0
x_21_2 - x_22_6 = 0
x_21_3 - x_22_7 = 0
x_21_0 + x_22_1 + x_22_2 - 2 d_21_0 >= 0
d_21_0 - x_21_0 >= 0
d_21_0 - x_22_1 >= 0
d_21_0 - x_22_2 >= 0
x_21_1 + x_22_0 + x_22_3 - 2 d_21_1 >= 0
d_21_1 - x_21_1 >= 0
d_21_1 - x_22_0 >= 0
d_21_1 - x_22_3 >= 0
x_21_6 + x_22_4 + x_22_7 - 2 d_21_2 >= 0
d_21_2 - x_21_6 >= 0
d_21_2 - x_22_4 >= 0
d_21_2 - x_22_7 >= 0
x_21_7 + x_22_5 + x_22_6 - 2 d_21_3 >= 0
d_21_3 - x_21_7 >= 0
d_21_3 - x_22_5 >= 0
d_21_3 - x_22_6 >= 0
A_21_0 - x_22_0 >= 0
A_21_1 - x_22_1 >= 0
A_21_2 - x_22_6 >= 0
A_21_3 - x_22_7 >= 0
x_22_4 - x_23_0 = 0
x_22_5 - x_23_1 = 0
x_22_2 - x_23_6 = 0
x_22_3 - x_23_7 = 0
x_22_0 + x_23_1 + x_23_2 - 2 d_22_0 >= 0
d_22_0 - x_22_0 >= 0
d_22_0 - x_23_1 >= 0
d_22_0 - x_23_2 >= 0
x_22_1 + x_23_0 + x_23_3 - 2 d_22_1 >= 0
d_22_1 - x_22_1 >= 0
d_22_1 - x_23_0 >= 0
d_22_1 - x_23_3 >= 0
x_22_6 + x_23_4 + x_23_7 - 2 d_22_2 >= 0
d_22_2 - x_22_6 >= 0
d_22_2 - x_23_4 >= 0
d_22_2 - x_23_7 >= 0
x_22_7 + x_23_5 + x_23_6 - 2 d_22_3 >= 0
d_22_3 - x_22_7 >= 0
d_22_3 - x_23_5 >= 0
d_22_3 - x_23_6 >= 0
A_22_0 - x_23_0 >= 0
A_22_1 - x_23_1 >= 0
A_22_2 - x_23_6 >= 0
A_22_3 - x_23_7 >= 0
x_23_4 - x_24_0 = 0
x_23_5 - x_24_1 = 0
x_23_2 - x_24_6 = 0
x_23_3 - x_24_7 = 0
x_23_0 + x_24_1 + x_24_2 - 2 d_23_0 >= 0
d_23_0 - x_23_0 >= 0
d_23_0 - x_24_1 >= 0
d_23_0 - x_24_2 >= 0
x_23_1 + x_24_0 + x_24_3 - 2 d_23_1 >= 0
d_23_1 - x_23_1 >= 0
d_23_1 - x_24_0 >= 0
d_23_1 - x_24_3 >= 0
x_23_6 + x_24_4 + x_24_7 - 2 d_23_2 >= 0
d_23_2 - x_23_6 >= 0
d_23_2 - x_24_4 >= 0
d_23_2 - x_24_7 >= 0
x_23_7 + x_24_5 + x_24_6 - 2 d_23_3 >= 0
d_23_3 - x_23_7 >= 0
d_23_3 - x_24_5 >= 0
d_23_3 - x_24_6 >= 0
A_23_0 - x_24_0 >= 0
A_23_1 - x_24_1 >= 0
A_23_2 - x_24_6 >= 0
A_23_3 - x_24_7 >= 0
x_24_4 - x_25_0 = 0
x_24_5 - x_25_1 = 0
x_24_2 - x_25_6 = 0
x_24_3 - x_25_7 = 0
x_24_0 + x_25_1 + x_25_2 - 2 d_24_0 >= 0
d_24_0 - x_24_0 >= 0
d_24_0 - x_25_1 >= 0
d_24_0 - x_25_2 >= 0
x_24_1 + x_25_0 + x_25_3 - 2 d_24_1 >= 0
d_24_1 - x_24_1 >= 0
d_24_1 - x_25_0 >= 0
d_24_1 - x_25_3 >= 0
x_24_6 + x_25_4 + x_25_7 - 2 d_24_2 >= 0
d_24_2 - x_24_6 >= 0
d_24_2 - x_25_4 >= 0
d_24_2 - x_25_7 >= 0
x_24_7 + x_25_5 + x_25_6 - 2 d_24_3 >= 0
d_24_3 - x_24_7 >= 0
d_24_3 - x_25_5 >= 0
d_24_3 - x_25_6 >= 0
A_24_0 - x_25_0 >= 0
A_24_1 - x_25_1 >= 0
A_24_2 - x_25_6 >= 0
A_24_3 - x_25_7 >= 0
x_25_4 - x_26_0 = 0
x_25_5 - x_26_1 = 0
x_25_2 - x_26_6 = 0
x_25_3 - x_26_7 = 0
x_25_0 + x_26_1 + x_26_2 - 2 d_25_0 >= 0
d_25_0 - x_25_0 >= 0
d_25_0 - x_26_1 >= 0
d_25_0 - x_26_2 >= 0
x_25_1 + x_26_0 + x_26_3 - 2 d_25_1 >= 0
d_25_1 - x_25_1 >= 0
d_25_1 - x_26_0 >= 0
d_25_1 - x_26_3 >= 0
x_25_6 + x_26_4 + x_26_7 - 2 d_25_2 >= 0
d_25_2 - x_25_6 >= 0
d_25_2 - x_26_4 >= 0
d_25_2 - x_26_7 >= 0
x_25_7 + x_26_5 + x_26_6 - 2 d_25_3 >= 0
d_25_3 - x_25_7 >= 0
d_25_3 - x_26_5 >= 0
d_25_3 - x_26_6 >= 0
A_25_0 - x_26_0 >= 0
A_25_1 - x_26_1 >= 0
A_25_2 - x_26_6 >= 0
A_25_3 - x_26_7 >= 0
x_26_4 - x_27_0 = 0
x_26_5 - x_27_1 = 0
x_26_2 - x_27_6 = 0
x_26_3 - x_27_7 = 0
x_26_0 + x_27_1 + x_27_2 - 2 d_26_0 >= 0
d_26_0 - x_26_0 >= 0
d_26_0 - x_27_1 >= 0
d_26_0 - x_27_2 >= 0
x_26_1 + x_27_0 + x_27_3 - 2 d_26_1 >= 0
d_26_1 - x_26_1 >= 0
d_26_1 - x_27_0 >= 0
d_26_1 - x_27_3 >= 0
x_26_6 + x_27_4 + x_27_7 - 2 d_26_2 >= 0
d_26_2 - x_26_6 >= 0
d_26_2 - x_27_4 >= 0
d_26_2 - x_27_7 >= 0
x_26_7 + x_27_5 + x_27_6 - 2 d_26_3 >= 0
d_26_3 - x_26_7 >= 0
d_26_3 - x_27_5 >= 0
d_26_3 - x_27_6 >= 0
A_26_0 - x_27_0 >= 0
A_26_1 - x_27_1 >= 0
A_26_2 - x_27_6 >= 0
A_26_3 - x_27_7 >= 0
x_27_4 - x_28_0 = 0
x_27_5 - x_28_1 = 0
x_27_2 - x_28_6 = 0
x_27_3 - x_28_7 = 0
x_27_0 + x_28_1 + x_28_2 - 2 d_27_0 >= 0
d_27_0 - x_27_0 >= 0
d_27_0 - x_28_1 >= 0
d_27_0 - x_28_2 >= 0
x_27_1 + x_28_0 + x_28_3 - 2 d_27_1 >= 0
d_27_1 - x_27_1 >= 0
d_27_1 - x_28_0 >= 0
d_27_1 - x_28_3 >= 0
x_27_6 + x_28_4 + x_28_7 - 2 d_27_2 >= 0
d_27_2 - x_27_6 >= 0
d_27_2 - x_28_4 >= 0
d_27_2 - x_28_7 >= 0
x_27_7 + x_28_5 + x_28_6 - 2 d_27_3 >= 0
d_27_3 - x_27_7 >= 0
d_27_3 - x_28_5 >= 0
d_27_3 - x_28_6 >= 0
A_27_0 - x_28_0 >= 0
A_27_1 - x_28_1 >= 0
A_27_2 - x_28_6 >= 0
A_27_3 - x_28_7 >= 0
x_28_4 - x_29_0 = 0
x_28_5 - x_29_1 = 0
x_28_2 - x_29_6 = 0
x_28_3 - x_29_7 = 0
x_28_0 + x_29_1 + x_29_2 - 2 d_28_0 >= 0
d_28_0 - x_28_0 >= 0
d_28_0 - x_29_1 >= 0
d_28_0 - x_29_2 >= 0
x_28_1 + x_29_0 + x_29_3 - 2 d_28_1 >= 0
d_28_1 - x_28_1 >= 0
d_28_1 - x_29_0 >= 0
d_28_1 - x_29_3 >= 0
x_28_6 + x_29_4 + x_29_7 - 2 d_28_2 >= 0
d_28_2 - x_28_6 >= 0
d_28_2 - x_29_4 >= 0
d_28_2 - x_29_7 >= 0
x_28_7 + x_29_5 + x_29_6 - 2 d_28_3 >= 0
d_28_3 - x_28_7 >= 0
d_28_3 - x_29_5 >= 0
d_28_3 - x_29_6 >= 0
A_28_0 - x_29_0 >= 0
A_28_1 - x_29_1 >= 0
A_28_2 - x_29_6 >= 0
A_28_3 - x_29_7 >= 0
x_29_4 - x_30_0 = 0
x_29_5 - x_30_1 = 0
x_29_2 - x_30_6 = 0
x_29_3 - x_30_7 = 0
x_29_0 + x_30_1 + x_30_2 - 2 d_29_0 >= 0
d_29_0 - x_29_0 >= 0
d_29_0 - x_30_1 >= 0
d_29_0 - x_30_2 >= 0
x_29_1 + x_30_0 + x_30_3 - 2 d_29_1 >= 0
d_29_1 - x_29_1 >= 0
d_29_1 - x_30_0 >= 0
d_29_1 - x_30_3 >= 0
x_29_6 + x_30_4 + x_30_7 - 2 d_29_2 >= 0
d_29_2 - x_29_6 >= 0
d_29_2 - x_30_4 >= 0
d_29_2 - x_30_7 >= 0
x_29_7 + x_30_5 + x_30_6 - 2 d_29_3 >= 0
d_29_3 - x_29_7 >= 0
d_29_3 - x_30_5 >= 0
d_29_3 - x_30_6 >= 0
A_29_0 - x_30_0 >= 0
A_29_1 - x_30_1 >= 0
A_29_2 - x_30_6 >= 0
A_29_3 - x_30_7 >= 0
x_30_4 - x_31_0 = 0
x_30_5 - x_31_1 = 0
x_30_2 - x_31_6 = 0
x_30_3 - x_31_7 = 0
x_30_0 + x_31_1 + x_31_2 - 2 d_30_0 >= 0
d_30_0 - x_30_0 >= 0
d_30_0 - x_31_1 >= 0
d_30_0 - x_31_2 >= 0
x_30_1 + x_31_0 + x_31_3 - 2 d_30_1 >= 0
d_30_1 - x_30_1 >= 0
d_30_1 - x_31_0 >= 0
d_30_1 - x_31_3 >= 0
x_30_6 + x_31_4 + x_31_7 - 2 d_30_2 >= 0
d_30_2 - x_30_6 >= 0
d_30_2 - x_31_4 >= 0
d_30_2 - x_31_7 >= 0
x_30_7 + x_31_5 + x_31_6 - 2 d_30_3 >= 0
d_30_3 - x_30_7 >= 0
d_30_3 - x_31_5 >= 0
d_30_3 - x_31_6 >= 0
A_30_0 - x_31_0 >= 0
A_30_1 - x_31_1 >= 0
A_30_2 - x_31_6 >= 0
A_30_3 - x_31_7 >= 0
x_31_4 - x_32_0 = 0
x_31_5 - x_32_1 = 0
x_31_2 - x_32_6 = 0
x_31_3 - x_32_7 = 0
x_31_0 + x_32_1 + x_32_2 - 2 d_31_0 >= 0
d_31_0 - x_31_0 >= 0
d_31_0 - x_32_1 >= 0
d_31_0 - x_32_2 >= 0
x_31_1 + x_32_0 + x_32_3 - 2 d_31_1 >= 0
d_31_1 - x_31_1 >= 0
d_31_1 - x_32_0 >= 0
d_31_1 - x_32_3 >= 0
x_31_6 + x_32_4 + x_32_7 - 2 d_31_2 >= 0
d_31_2 - x_31_6 >= 0
d_31_2 - x_32_4 >= 0
d_31_2 - x_32_7 >= 0
x_31_7 + x_32_5 + x_32_6 - 2 d_31_3 >= 0
d_31_3 - x_31_7 >= 0
d_31_3 - x_32_5 >= 0
d_31_3 - x_32_6 >= 0
A_31_0 - x_32_0 >= 0
A_31_1 - x_32_1 >= 0
A_31_2 - x_32_6 >= 0
A_31_3 - x_32_7 >= 0
x_32_4 - x_33_0 = 0
x_32_5 - x_33_1 = 0
x_32_2 - x_33_6 = 0
x_32_3 - x_33_7 = 0
x_32_0 + x_33_1 + x_33_2 - 2 d_32_0 >= 0
d_32_0 - x_32_0 >= 0
d_32_0 - x_33_1 >= 0
d_32_0 - x_33_2 >= 0
x_32_1 + x_33_0 + x_33_3 - 2 d_32_1 >= 0
d_32_1 - x_32_1 >= 0
d_32_1 - x_33_0 >= 0
d_32_1 - x_33_3 >= 0
x_32_6 + x_33_4 + x_33_7 - 2 d_32_2 >= 0
d_32_2 - x_32_6 >= 0
d_32_2 - x_33_4 >= 0
d_32_2 - x_33_7 >= 0
x_32_7 + x_33_5 + x_33_6 - 2 d_32_3 >= 0
d_32_3 - x_32_7 >= 0
d_32_3 - x_33_5 >= 0
d_32_3 - x_33_6 >= 0
A_32_0 - x_33_0 >= 0
A_32_1 - x_33_1 >= 0
A_32_2 - x_33_6 >= 0
A_32_3 - x_33_7 >= 0
x_33_4 - x_34_0 = 0
x_33_5 - x_34_1 = 0
x_33_2 - x_34_6 = 0
x_33_3 - x_34_7 = 0
x_33_0 + x_34_1 + x_34_2 - 2 d_33_0 >= 0
d_33_0 - x_33_0 >= 0
d_33_0 - x_34_1 >= 0
d_33_0 - x_34_2 >= 0
x_33_1 + x_34_0 + x_34_3 - 2 d_33_1 >= 0
d_33_1 - x_33_1 >= 0
d_33_1 - x_34_0 >= 0
d_33_1 - x_34_3 >= 0
x_33_6 + x_34_4 + x_34_7 - 2 d_33_2 >= 0
d_33_2 - x_33_6 >= 0
d_33_2 - x_34_4 >= 0
d_33_2 - x_34_7 >= 0
x_33_7 + x_34_5 + x_34_6 - 2 d_33_3 >= 0
d_33_3 - x_33_7 >= 0
d_33_3 - x_34_5 >= 0
d_33_3 - x_34_6 >= 0
A_33_0 - x_34_0 >= 0
A_33_1 - x_34_1 >= 0
A_33_2 - x_34_6 >= 0
A_33_3 - x_34_7 >= 0
x_34_4 - x_35_0 = 0
x_34_5 - x_35_1 = 0
x_34_2 - x_35_6 = 0
x_34_3 - x_35_7 = 0
x_34_0 + x_35_1 + x_35_2 - 2 d_34_0 >= 0
d_34_0 - x_34_0 >= 0
d_34_0 - x_35_1 >= 0
d_34_0 - x_35_2 >= 0
x_34_1 + x_35_0 + x_35_3 - 2 d_34_1 >= 0
d_34_1 - x_34_1 >= 0
d_34_1 - x_35_0 >= 0
d_34_1 - x_35_3 >= 0
x_34_6 + x_35_4 + x_35_7 - 2 d_34_2 >= 0
d_34_2 - x_34_6 >= 0
d_34_2 - x_35_4 >= 0
d_34_2 - x_35_7 >= 0
x_34_7 + x_35_5 + x_35_6 - 2 d_34_3 >= 0
d_34_3 - x_34_7 >= 0
d_34_3 - x_35_5 >= 0
d_34_3 - x_35_6 >= 0
A_34_0 - x_35_0 >= 0
A_34_1 - x_35_1 >= 0
A_34_2 - x_35_6 >= 0
A_34_3 - x_35_7 >= 0
x_35_4 - x_36_0 = 0
x_35_5 - x_36_1 = 0
x_35_2 - x_36_6 = 0
x_35_3 - x_36_7 = 0
x_35_0 + x_36_1 + x_36_2 - 2 d_35_0 >= 0
d_35_0 - x_35_0 >= 0
d_35_0 - x_36_1 >= 0
d_35_0 - x_36_2 >= 0
x_35_1 + x_36_0 + x_36_3 - 2 d_35_1 >= 0
d_35_1 - x_35_1 >= 0
d_35_1 - x_36_0 >= 0
d_35_1 - x_36_3 >= 0
x_35_6 + x_36_4 + x_36_7 - 2 d_35_2 >= 0
d_35_2 - x_35_6 >= 0
d_35_2 - x_36_4 >= 0
d_35_2 - x_36_7 >= 0
x_35_7 + x_36_5 + x_36_6 - 2 d_35_3 >= 0
d_35_3 - x_35_7 >= 0
d_35_3 - x_36_5 >= 0
d_35_3 - x_36_6 >= 0
A_35_0 - x_36_0 >= 0
A_35_1 - x_36_1 >= 0
A_35_2 - x_36_6 >= 0
A_35_3 - x_36_7 >= 0
x_36_4 - x_37_0 = 0
x_36_5 - x_37_1 = 0
x_36_2 - x_37_6 = 0
x_36_3 - x_37_7 = 0
x_36_0 + x_37_1 + x_37_2 - 2 d_36_0 >= 0
d_36_0 - x_36_0 >= 0
d_36_0 - x_37_1 >= 0
d_36_0 - x_37_2 >= 0
x_36_1 + x_37_0 + x_37_3 - 2 d_36_1 >= 0
d_36_1 - x_36_1 >= 0
d_36_1 - x_37_0 >= 0
d_36_1 - x_37_3 >= 0
x_36_6 + x_37_4 + x_37_7 - 2 d_36_2 >= 0
d_36_2 - x_36_6 >= 0
d_36_2 - x_37_4 >= 0
d_36_2 - x_37_7 >= 0
x_36_7 + x_37_5 + x_37_6 - 2 d_36_3 >= 0
d_36_3 - x_36_7 >= 0
d_36_3 - x_37_5 >= 0
d_36_3 - x_37_6 >= 0
A_36_0 - x_37_0 >= 0
A_36_1 - x_37_1 >= 0
A_36_2 - x_37_6 >= 0
A_36_3 - x_37_7 >= 0
x_37_4 - x_38_0 = 0
x_37_5 - x_38_1 = 0
x_37_2 - x_38_6 = 0
x_37_3 - x_38_7 = 0
x_37_0 + x_38_1 + x_38_2 - 2 d_37_0 >= 0
d_37_0 - x_37_0 >= 0
d_37_0 - x_38_1 >= 0
d_37_0 - x_38_2 >= 0
x_37_1 + x_38_0 + x_38_3 - 2 d_37_1 >= 0
d_37_1 - x_37_1 >= 0
d_37_1 - x_38_0 >= 0
d_37_1 - x_38_3 >= 0
x_37_6 + x_38_4 + x_38_7 - 2 d_37_2 >= 0
d_37_2 - x_37_6 >= 0
d_37_2 - x_38_4 >= 0
d_37_2 - x_38_7 >= 0
x_37_7 + x_38_5 + x_38_6 - 2 d_37_3 >= 0
d_37_3 - x_37_7 >= 0
d_37_3 - x_38_5 >= 0
d_37_3 - x_38_6 >= 0
A_37_0 - x_38_0 >= 0
A_37_1 - x_38_1 >= 0
A_37_2 - x_38_6 >= 0
A_37_3 - x_38_7 >= 0
x_38_4 - x_39_0 = 0
x_38_5 - x_39_1 = 0
x_38_2 - x_39_6 = 0
x_38_3 - x_39_7 = 0
x_38_0 + x_39_1 + x_39_2 - 2 d_38_0 >= 0
d_38_0 - x_38_0 >= 0
d_38_0 - x_39_1 >= 0
d_38_0 - x_39_2 >= 0
x_38_1 + x_39_0 + x_39_3 - 2 d_38_1 >= 0
d_38_1 - x_38_1 >= 0
d_38_1 - x_39_0 >= 0
d_38_1 - x_39_3 >= 0
x_38_6 + x_39_4 + x_39_7 - 2 d_38_2 >= 0
d_38_2 - x_38_6 >= 0
d_38_2 - x_39_4 >= 0
d_38_2 - x_39_7 >= 0
x_38_7 + x_39_5 + x_39_6 - 2 d_38_3 >= 0
d_38_3 - x_38_7 >= 0
d_38_3 - x_39_5 >= 0
d_38_3 - x_39_6 >= 0
A_38_0 - x_39_0 >= 0
A_38_1 - x_39_1 >= 0
A_38_2 - x_39_6 >= 0
A_38_3 - x_39_7 >= 0
x_39_4 - x_40_0 = 0
x_39_5 - x_40_1 = 0
x_39_2 - x_40_6 = 0
x_39_3 - x_40_7 = 0
x_39_0 + x_40_1 + x_40_2 - 2 d_39_0 >= 0
d_39_0 - x_39_0 >= 0
d_39_0 - x_40_1 >= 0
d_39_0 - x_40_2 >= 0
x_39_1 + x_40_0 + x_40_3 - 2 d_39_1 >= 0
d_39_1 - x_39_1 >= 0
d_39_1 - x_40_0 >= 0
d_39_1 - x_40_3 >= 0
x_39_6 + x_40_4 + x_40_7 - 2 d_39_2 >= 0
d_39_2 - x_39_6 >= 0
d_39_2 - x_40_4 >= 0
d_39_2 - x_40_7 >= 0
x_39_7 + x_40_5 + x_40_6 - 2 d_39_3 >= 0
d_39_3 - x_39_7 >= 0
d_39_3 - x_40_5 >= 0
d_39_3 - x_40_6 >= 0
A_39_0 - x_40_0 >= 0
A_39_1 - x_40_1 >= 0
A_39_2 - x_40_6 >= 0
A_39_3 - x_40_7 >= 0
x_40_4 - x_41_0 = 0
x_40_5 - x_41_1 = 0
x_40_2 - x_41_6 = 0
x_40_3 - x_41_7 = 0
x_40_0 + x_41_1 + x_41_2 - 2 d_40_0 >= 0
d_40_0 - x_40_0 >= 0
d_40_0 - x_41_1 >= 0
d_40_0 - x_41_2 >= 0
x_40_1 + x_41_0 + x_41_3 - 2 d_40_1 >= 0
d_40_1 - x_40_1 >= 0
d_40_1 - x_41_0 >= 0
d_40_1 - x_41_3 >= 0
x_40_6 + x_41_4 + x_41_7 - 2 d_40_2 >= 0
d_40_2 - x_40_6 >= 0
d_40_2 - x_41_4 >= 0
d_40_2 - x_41_7 >= 0
x_40_7 + x_41_5 + x_41_6 - 2 d_40_3 >= 0
d_40_3 - x_40_7 >= 0
d_40_3 - x_41_5 >= 0
d_40_3 - x_41_6 >= 0
A_40_0 - x_41_0 >= 0
A_40_1 - x_41_1 >= 0
A_40_2 - x_41_6 >= 0
A_40_3 - x_41_7 >= 0
x_41_4 - x_42_0 = 0
x_41_5 - x_42_1 = 0
x_41_2 - x_42_6 = 0
x_41_3 - x_42_7 = 0
x_41_0 + x_42_1 + x_42_2 - 2 d_41_0 >= 0
d_41_0 - x_41_0 >= 0
d_41_0 - x_42_1 >= 0
d_41_0 - x_42_2 >= 0
x_41_1 + x_42_0 + x_42_3 - 2 d_41_1 >= 0
d_41_1 - x_41_1 >= 0
d_41_1 - x_42_0 >= 0
d_41_1 - x_42_3 >= 0
x_41_6 + x_42_4 + x_42_7 - 2 d_41_2 >= 0
d_41_2 - x_41_6 >= 0
d_41_2 - x_42_4 >= 0
d_41_2 - x_42_7 >= 0
x_41_7 + x_42_5 + x_42_6 - 2 d_41_3 >= 0
d_41_3 - x_41_7 >= 0
d_41_3 - x_42_5 >= 0
d_41_3 - x_42_6 >= 0
A_41_0 - x_42_0 >= 0
A_41_1 - x_42_1 >= 0
A_41_2 - x_42_6 >= 0
A_41_3 - x_42_7 >= 0
x_42_4 - x_43_0 = 0
x_42_5 - x_43_1 = 0
x_42_2 - x_43_6 = 0
x_42_3 - x_43_7 = 0
x_42_0 + x_43_1 + x_43_2 - 2 d_42_0 >= 0
d_42_0 - x_42_0 >= 0
d_42_0 - x_43_1 >= 0
d_42_0 - x_43_2 >= 0
x_42_1 + x_43_0 + x_43_3 - 2 d_42_1 >= 0
d_42_1 - x_42_1 >= 0
d_42_1 - x_43_0 >= 0
d_42_1 - x_43_3 >= 0
x_42_6 + x_43_4 + x_43_7 - 2 d_42_2 >= 0
d_42_2 - x_42_6 >= 0
d_42_2 - x_43_4 >= 0
d_42_2 - x_43_7 >= 0
x_42_7 + x_43_5 + x_43_6 - 2 d_42_3 >= 0
d_42_3 - x_42_7 >= 0
d_42_3 - x_43_5 >= 0
d_42_3 - x_43_6 >= 0
A_42_0 - x_43_0 >= 0
A_42_1 - x_43_1 >= 0
A_42_2 - x_43_6 >= 0
A_42_3 - x_43_7 >= 0
x_43_4 - x_44_0 = 0
x_43_5 - x_44_1 = 0
x_43_2 - x_44_6 = 0
x_43_3 - x_44_7 = 0
x_43_0 + x_44_1 + x_44_2 - 2 d_43_0 >= 0
d_43_0 - x_43_0 >= 0
d_43_0 - x_44_1 >= 0
d_43_0 - x_44_2 >= 0
x_43_1 + x_44_0 + x_44_3 - 2 d_43_1 >= 0
d_43_1 - x_43_1 >= 0
d_43_1 - x_44_0 >= 0
d_43_1 - x_44_3 >= 0
x_43_6 + x_44_4 + x_44_7 - 2 d_43_2 >= 0
d_43_2 - x_43_6 >= 0
d_43_2 - x_44_4 >= 0
d_43_2 - x_44_7 >= 0
x_43_7 + x_44_5 + x_44_6 - 2 d_43_3 >= 0
d_43_3 - x_43_7 >= 0
d_43_3 - x_44_5 >= 0
d_43_3 - x_44_6 >= 0
A_43_0 - x_44_0 >= 0
A_43_1 - x_44_1 >= 0
A_43_2 - x_44_6 >= 0
A_43_3 - x_44_7 >= 0
x_44_4 - x_45_0 = 0
x_44_5 - x_45_1 = 0
x_44_2 - x_45_6 = 0
x_44_3 - x_45_7 = 0
x_44_0 + x_45_1 + x_45_2 - 2 d_44_0 >= 0
d_44_0 - x_44_0 >= 0
d_44_0 - x_45_1 >= 0
d_44_0 - x_45_2 >= 0
x_44_1 + x_45_0 + x_45_3 - 2 d_44_1 >= 0
d_44_1 - x_44_1 >= 0
d_44_1 - x_45_0 >= 0
d_44_1 - x_45_3 >= 0
x_44_6 + x_45_4 + x_45_7 - 2 d_44_2 >= 0
d_44_2 - x_44_6 >= 0
d_44_2 - x_45_4 >= 0
d_44_2 - x_45_7 >= 0
x_44_7 + x_45_5 + x_45_6 - 2 d_44_3 >= 0
d_44_3 - x_44_7 >= 0
d_44_3 - x_45_5 >= 0
d_44_3 - x_45_6 >= 0
A_44_0 - x_45_0 >= 0
A_44_1 - x_45_1 >= 0
A_44_2 - x_45_6 >= 0
A_44_3 - x_45_7 >= 0
x_45_4 - x_46_0 = 0
x_45_5 - x_46_1 = 0
x_45_2 - x_46_6 = 0
x_45_3 - x_46_7 = 0
x_45_0 + x_46_1 + x_46_2 - 2 d_45_0 >= 0
d_45_0 - x_45_0 >= 0
d_45_0 - x_46_1 >= 0
d_45_0 - x_46_2 >= 0
x_45_1 + x_46_0 + x_46_3 - 2 d_45_1 >= 0
d_45_1 - x_45_1 >= 0
d_45_1 - x_46_0 >= 0
d_45_1 - x_46_3 >= 0
x_45_6 + x_46_4 + x_46_7 - 2 d_45_2 >= 0
d_45_2 - x_45_6 >= 0
d_45_2 - x_46_4 >= 0
d_45_2 - x_46_7 >= 0
x_45_7 + x_46_5 + x_46_6 - 2 d_45_3 >= 0
d_45_3 - x_45_7 >= 0
d_45_3 - x_46_5 >= 0
d_45_3 - x_46_6 >= 0
A_45_0 - x_46_0 >= 0
A_45_1 - x_46_1 >= 0
A_45_2 - x_46_6 >= 0
A_45_3 - x_46_7 >= 0
x_46_4 - x_47_0 = 0
x_46_5 - x_47_1 = 0
x_46_2 - x_47_6 = 0
x_46_3 - x_47_7 = 0
x_46_0 + x_47_1 + x_47_2 - 2 d_46_0 >= 0
d_46_0 - x_46_0 >= 0
d_46_0 - x_47_1 >= 0
d_46_0 - x_47_2 >= 0
x_46_1 + x_47_0 + x_47_3 - 2 d_46_1 >= 0
d_46_1 - x_46_1 >= 0
d_46_1 - x_47_0 >= 0
d_46_1 - x_47_3 >= 0
x_46_6 + x_47_4 + x_47_7 - 2 d_46_2 >= 0
d_46_2 - x_46_6 >= 0
d_46_2 - x_47_4 >= 0
d_46_2 - x_47_7 >= 0
x_46_7 + x_47_5 + x_47_6 - 2 d_46_3 >= 0
d_46_3 - x_46_7 >= 0
d_46_3 - x_47_5 >= 0
d_46_3 - x_47_6 >= 0
A_46_0 - x_47_0 >= 0
A_46_1 - x_47_1 >= 0
A_46_2 - x_47_6 >= 0
A_46_3 - x_47_7 >= 0
x_47_4 - x_48_0 = 0
x_47_5 - x_48_1 = 0
x_47_2 - x_48_6 = 0
x_47_3 - x_48_7 = 0
x_47_0 + x_48_1 + x_48_2 - 2 d_47_0 >= 0
d_47_0 - x_47_0 >= 0
d_47_0 - x_48_1 >= 0
d_47_0 - x_48_2 >= 0
x_47_1 + x_48_0 + x_48_3 - 2 d_47_1 >= 0
d_47_1 - x_47_1 >= 0
d_47_1 - x_48_0 >= 0
d_47_1 - x_48_3 >= 0
x_47_6 + x_48_4 + x_48_7 - 2 d_47_2 >= 0
d_47_2 - x_47_6 >= 0
d_47_2 - x_48_4 >= 0
d_47_2 - x_48_7 >= 0
x_47_7 + x_48_5 + x_48_6 - 2 d_47_3 >= 0
d_47_3 - x_47_7 >= 0
d_47_3 - x_48_5 >= 0
d_47_3 - x_48_6 >= 0
A_47_0 - x_48_0 >= 0
A_47_1 - x_48_1 >= 0
A_47_2 - x_48_6 >= 0
A_47_3 - x_48_7 >= 0
x_48_4 - x_49_0 = 0
x_48_5 - x_49_1 = 0
x_48_2 - x_49_6 = 0
x_48_3 - x_49_7 = 0
x_48_0 + x_49_1 + x_49_2 - 2 d_48_0 >= 0
d_48_0 - x_48_0 >= 0
d_48_0 - x_49_1 >= 0
d_48_0 - x_49_2 >= 0
x_48_1 + x_49_0 + x_49_3 - 2 d_48_1 >= 0
d_48_1 - x_48_1 >= 0
d_48_1 - x_49_0 >= 0
d_48_1 - x_49_3 >= 0
x_48_6 + x_49_4 + x_49_7 - 2 d_48_2 >= 0
d_48_2 - x_48_6 >= 0
d_48_2 - x_49_4 >= 0
d_48_2 - x_49_7 >= 0
x_48_7 + x_49_5 + x_49_6 - 2 d_48_3 >= 0
d_48_3 - x_48_7 >= 0
d_48_3 - x_49_5 >= 0
d_48_3 - x_49_6 >= 0
A_48_0 - x_49_0 >= 0
A_48_1 - x_49_1 >= 0
A_48_2 - x_49_6 >= 0
A_48_3 - x_49_7 >= 0
x_49_4 - x_50_0 = 0
x_49_5 - x_50_1 = 0
x_49_2 - x_50_6 = 0
x_49_3 - x_50_7 = 0
x_49_0 + x_50_1 + x_50_2 - 2 d_49_0 >= 0
d_49_0 - x_49_0 >= 0
d_49_0 - x_50_1 >= 0
d_49_0 - x_50_2 >= 0
x_49_1 + x_50_0 + x_50_3 - 2 d_49_1 >= 0
d_49_1 - x_49_1 >= 0
d_49_1 - x_50_0 >= 0
d_49_1 - x_50_3 >= 0
x_49_6 + x_50_4 + x_50_7 - 2 d_49_2 >= 0
d_49_2 - x_49_6 >= 0
d_49_2 - x_50_4 >= 0
d_49_2 - x_50_7 >= 0
x_49_7 + x_50_5 + x_50_6 - 2 d_49_3 >= 0
d_49_3 - x_49_7 >= 0
d_49_3 - x_50_5 >= 0
d_49_3 - x_50_6 >= 0
A_49_0 - x_50_0 >= 0
A_49_1 - x_50_1 >= 0
A_49_2 - x_50_6 >= 0
A_49_3 - x_50_7 >= 0
x_50_4 - x_51_0 = 0
x_50_5 - x_51_1 = 0
x_50_2 - x_51_6 = 0
x_50_3 - x_51_7 = 0
x_50_0 + x_51_1 + x_51_2 - 2 d_50_0 >= 0
d_50_0 - x_50_0 >= 0
d_50_0 - x_51_1 >= 0
d_50_0 - x_51_2 >= 0
x_50_1 + x_51_0 + x_51_3 - 2 d_50_1 >= 0
d_50_1 - x_50_1 >= 0
d_50_1 - x_51_0 >= 0
d_50_1 - x_51_3 >= 0
x_50_6 + x_51_4 + x_51_7 - 2 d_50_2 >= 0
d_50_2 - x_50_6 >= 0
d_50_2 - x_51_4 >= 0
d_50_2 - x_51_7 >= 0
x_50_7 + x_51_5 + x_51_6 - 2 d_50_3 >= 0
d_50_3 - x_50_7 >= 0
d_50_3 - x_51_5 >= 0
d_50_3 - x_51_6 >= 0
A_50_0 - x_51_0 >= 0
A_50_1 - x_51_1 >= 0
A_50_2 - x_51_6 >= 0
A_50_3 - x_51_7 >= 0
x_51_0 + x_51_1 + x_51_2 + x_51_3 + x_51_4 + x_51_5 + x_51_6 + x_51_7 >= 1
Binary
x_1_0
x_1_1
x_1_2
x_1_3
x_1_4
x_1_5
x_1_6
x_1_7
d_1_0
d_1_1
d_1_2
d_1_3
A_1_0
A_1_1
A_1_2
A_1_3
x_2_0
x_2_1
x_2_2
x_2_3
x_2_4
x_2_5
x_2_6
x_2_7
d_2_0
d_2_1
d_2_2
d_2_3
A_2_0
A_2_1
A_2_2
A_2_3
x_3_0
x_3_1
x_3_2
x_3_3
x_3_4
x_3_5
x_3_6
x_3_7
d_3_0
d_3_1
d_3_2
d_3_3
A_3_0
A_3_1
A_3_2
A_3_3
x_4_0
x_4_1
x_4_2
x_4_3
x_4_4
x_4_5
x_4_6
x_4_7
d_4_0
d_4_1
d_4_2
d_4_3
A_4_0
A_4_1
A_4_2
A_4_3
x_5_0
x_5_1
x_5_2
x_5_3
x_5_4
x_5_5
x_5_6
x_5_7
d_5_0
d_5_1
d_5_2
d_5_3
A_5_0
A_5_1
A_5_2
A_5_3
x_6_0
x_6_1
x_6_2
x_6_3
x_6_4
x_6_5
x_6_6
x_6_7
d_6_0
d_6_1
d_6_2
d_6_3
A_6_0
A_6_1
A_6_2
A_6_3
x_7_0
x_7_1
x_7_2
x_7_3
x_7_4
x_7_5
x_7_6
x_7_7
d_7_0
d_7_1
d_7_2
d_7_3
A_7_0
A_7_1
A_7_2
A_7_3
x_8_0
x_8_1
x_8_2
x_8_3
x_8_4
x_8_5
x_8_6
x_8_7
d_8_0
d_8_1
d_8_2
d_8_3
A_8_0
A_8_1
A_8_2
A_8_3
x_9_0
x_9_1
x_9_2
x_9_3
x_9_4
x_9_5
x_9_6
x_9_7
d_9_0
d_9_1
d_9_2
d_9_3
A_9_0
A_9_1
A_9_2
A_9_3
x_10_0
x_10_1
x_10_2
x_10_3
x_10_4
x_10_5
x_10_6
x_10_7
d_10_0
d_10_1
d_10_2
d_10_3
A_10_0
A_10_1
A_10_2
A_10_3
x_11_0
x_11_1
x_11_2
x_11_3
x_11_4
x_11_5
x_11_6
x_11_7
d_11_0
d_11_1
d_11_2
d_11_3
A_11_0
A_11_1
A_11_2
A_11_3
x_12_0
x_12_1
x_12_2
x_12_3
x_12_4
x_12_5
x_12_6
x_12_7
d_12_0
d_12_1
d_12_2
d_12_3
A_12_0
A_12_1
A_12_2
A_12_3
x_13_0
x_13_1
x_13_2
x_13_3
x_13_4
x_13_5
x_13_6
x_13_7
d_13_0
d_13_1
d_13_2
d_13_3
A_13_0
A_13_1
A_13_2
A_13_3
x_14_0
x_14_1
x_14_2
x_14_3
x_14_4
x_14_5
x_14_6
x_14_7
d_14_0
d_14_1
d_14_2
d_14_3
A_14_0
A_14_1
A_14_2
A_14_3
x_15_0
x_15_1
x_15_2
x_15_3
x_15_4
x_15_5
x_15_6
x_15_7
d_15_0
d_15_1
d_15_2
d_15_3
A_15_0
A_15_1
A_15_2
A_15_3
x_16_0
x_16_1
x_16_2
x_16_3
x_16_4
x_16_5
x_16_6
x_16_7
d_16_0
d_16_1
d_16_2
d_16_3
A_16_0
A_16_1
A_16_2
A_16_3
x_17_0
x_17_1
x_17_2
x_17_3
x_17_4
x_17_5
x_17_6
x_17_7
d_17_0
d_17_1
d_17_2
d_17_3
A_17_0
A_17_1
A_17_2
A_17_3
x_18_0
x_18_1
x_18_2
x_18_3
x_18_4
x_18_5
x_18_6
x_18_7
d_18_0
d_18_1
d_18_2
d_18_3
A_18_0
A_18_1
A_18_2
A_18_3
x_19_0
x_19_1
x_19_2
x_19_3
x_19_4
x_19_5
x_19_6
x_19_7
d_19_0
d_19_1
d_19_2
d_19_3
A_19_0
A_19_1
A_19_2
A_19_3
x_20_0
x_20_1
x_20_2
x_20_3
x_20_4
x_20_5
x_20_6
x_20_7
d_20_0
d_20_1
d_20_2
d_20_3
A_20_0
A_20_1
A_20_2
A_20_3
x_21_0
x_21_1
x_21_2
x_21_3
x_21_4
x_21_5
x_21_6
x_21_7
d_21_0
d_21_1
d_21_2
d_21_3
A_21_0
A_21_1
A_21_2
A_21_3
x_22_0
x_22_1
x_22_2
x_22_3
x_22_4
x_22_5
x_22_6
x_22_7
d_22_0
d_22_1
d_22_2
d_22_3
A_22_0
A_22_1
A_22_2
A_22_3
x_23_0
x_23_1
x_23_2
x_23_3
x_23_4
x_23_5
x_23_6
x_23_7
d_23_0
d_23_1
d_23_2
d_23_3
A_23_0
A_23_1
A_23_2
A_23_3
x_24_0
x_24_1
x_24_2
x_24_3
x_24_4
x_24_5
x_24_6
x_24_7
d_24_0
d_24_1
d_24_2
d_24_3
A_24_0
A_24_1
A_24_2
A_24_3
x_25_0
x_25_1
x_25_2
x_25_3
x_25_4
x_25_5
x_25_6
x_25_7
d_25_0
d_25_1
d_25_2
d_25_3
A_25_0
A_25_1
A_25_2
A_25_3
x_26_0
x_26_1
x_26_2
x_26_3
x_26_4
x_26_5
x_26_6
x_26_7
d_26_0
d_26_1
d_26_2
d_26_3
A_26_0
A_26_1
A_26_2
A_26_3
x_27_0
x_27_1
x_27_2
x_27_3
x_27_4
x_27_5
x_27_6
x_27_7
d_27_0
d_27_1
d_27_2
d_27_3
A_27_0
A_27_1
A_27_2
A_27_3
x_28_0
x_28_1
x_28_2
x_28_3
x_28_4
x_28_5
x_28_6
x_28_7
d_28_0
d_28_1
d_28_2
d_28_3
A_28_0
A_28_1
A_28_2
A_28_3
x_29_0
x_29_1
x_29_2
x_29_3
x_29_4
x_29_5
x_29_6
x_29_7
d_29_0
d_29_1
d_29_2
d_29_3
A_29_0
A_29_1
A_29_2
A_29_3
x_30_0
x_30_1
x_30_2
x_30_3
x_30_4
x_30_5
x_30_6
x_30_7
d_30_0
d_30_1
d_30_2
d_30_3
A_30_0
A_30_1
A_30_2
A_30_3
x_31_0
x_31_1
x_31_2
x_31_3
x_31_4
x_31_5
x_31_6
x_31_7
d_31_0
d_31_1
d_31_2
d_31_3
A_31_0
A_31_1
A_31_2
A_31_3
x_32_0
x_32_1
x_32_2
x_32_3
x_32_4
x_32_5
x_32_6
x_32_7
d_32_0
d_32_1
d_32_2
d_32_3
A_32_0
A_32_1
A_32_2
A_32_3
x_33_0
x_33_1
x_33_2
x_33_3
x_33_4
x_33_5
x_33_6
x_33_7
d_33_0
d_33_1
d_33_2
d_33_3
A_33_0
A_33_1
A_33_2
A_33_3
x_34_0
x_34_1
x_34_2
x_34_3
x_34_4
x_34_5
x_34_6
x_34_7
d_34_0
d_34_1
d_34_2
d_34_3
A_34_0
A_34_1
A_34_2
A_34_3
x_35_0
x_35_1
x_35_2
x_35_3
x_35_4
x_35_5
x_35_6
x_35_7
d_35_0
d_35_1
d_35_2
d_35_3
A_35_0
A_35_1
A_35_2
A_35_3
x_36_0
x_36_1
x_36_2
x_36_3
x_36_4
x_36_5
x_36_6
x_36_7
d_36_0
d_36_1
d_36_2
d_36_3
A_36_0
A_36_1
A_36_2
A_36_3
x_37_0
x_37_1
x_37_2
x_37_3
x_37_4
x_37_5
x_37_6
x_37_7
d_37_0
d_37_1
d_37_2
d_37_3
A_37_0
A_37_1
A_37_2
A_37_3
x_38_0
x_38_1
x_38_2
x_38_3
x_38_4
x_38_5
x_38_6
x_38_7
d_38_0
d_38_1
d_38_2
d_38_3
A_38_0
A_38_1
A_38_2
A_38_3
x_39_0
x_39_1
x_39_2
x_39_3
x_39_4
x_39_5
x_39_6
x_39_7
d_39_0
d_39_1
d_39_2
d_39_3
A_39_0
A_39_1
A_39_2
A_39_3
x_40_0
x_40_1
x_40_2
x_40_3
x_40_4
x_40_5
x_40_6
x_40_7
d_40_0
d_40_1
d_40_2
d_40_3
A_40_0
A_40_1
A_40_2
A_40_3
x_41_0
x_41_1
x_41_2
x_41_3
x_41_4
x_41_5
x_41_6
x_41_7
d_41_0
d_41_1
d_41_2
d_41_3
A_41_0
A_41_1
A_41_2
A_41_3
x_42_0
x_42_1
x_42_2
x_42_3
x_42_4
x_42_5
x_42_6
x_42_7
d_42_0
d_42_1
d_42_2
d_42_3
A_42_0
A_42_1
A_42_2
A_42_3
x_43_0
x_43_1
x_43_2
x_43_3
x_43_4
x_43_5
x_43_6
x_43_7
d_43_0
d_43_1
d_43_2
d_43_3
A_43_0
A_43_1
A_43_2
A_43_3
x_44_0
x_44_1
x_44_2
x_44_3
x_44_4
x_44_5
x_44_6
x_44_7
d_44_0
d_44_1
d_44_2
d_44_3
A_44_0
A_44_1
A_44_2
A_44_3
x_45_0
x_45_1
x_45_2
x_45_3
x_45_4
x_45_5
x_45_6
x_45_7
d_45_0
d_45_1
d_45_2
d_45_3
A_45_0
A_45_1
A_45_2
A_45_3
x_46_0
x_46_1
x_46_2
x_46_3
x_46_4
x_46_5
x_46_6
x_46_7
d_46_0
d_46_1
d_46_2
d_46_3
A_46_0
A_46_1
A_46_2
A_46_3
x_47_0
x_47_1
x_47_2
x_47_3
x_47_4
x_47_5
x_47_6
x_47_7
d_47_0
d_47_1
d_47_2
d_47_3
A_47_0
A_47_1
A_47_2
A_47_3
x_48_0
x_48_1
x_48_2
x_48_3
x_48_4
x_48_5
x_48_6
x_48_7
d_48_0
d_48_1
d_48_2
d_48_3
A_48_0
A_48_1
A_48_2
A_48_3
x_49_0
x_49_1
x_49_2
x_49_3
x_49_4
x_49_5
x_49_6
x_49_7
d_49_0
d_49_1
d_49_2
d_49_3
A_49_0
A_49_1
A_49_2
A_49_3
x_50_0
x_50_1
x_50_2
x_50_3
x_50_4
x_50_5
x_50_6
x_50_7
d_50_0
d_50_1
d_50_2
d_50_3
A_50_0
A_50_1
A_50_2
A_50_3
END
